(assert (forall ((pkt_0_6_8_0  Int  )(pkt_1_7_9_0  Int  )(state_group_0_state_0_8_a_0  Int  )(state_group_1_state_0_9_b_0  Int  )(state_group_2_state_0_a_c_0  Int  )) (let ((_n0 pkt_0_6_8_0 ))
(let ((_n1 false ))
(let ((_n2 (=   _n0   (ite  _n1  1 0) ) ))
(let ((_n3 (not  _n2 ) ))
(let ((_n4 (ite (=  _n0  0)  (ite  _n1  1 0)   _n0  ) ))
(let ((_n5 (ite (=  (ite  _n3  1 0)  1)  _n4   (ite  _n1  1 0)  ) ))
(let ((_n6 (=   _n5   _n0 ) ))
(let ((_n8 30 ))
(let ((_n9 pkt_1_7_9_0 ))
(let ((_n10 (<   _n9   _n8 ) ))
(let ((_n11 state_group_1_state_0_9_b_0 ))
(let ((_n12 (+   _n11   _n9 ) ))
(let ((_n13 (ite  _n10   _n12   _n11  ) ))
(let ((_n14 (ite (=  _n0  0)  _n9   (ite  _n1  1 0)  ) ))
(let ((_n15 (ite (=  _n0  0)  _n14   _n9  ) ))
(let ((_n16 (+   _n11   _n15 ) ))
(let ((_n17 (=   _n16   _n13 ) ))
(let ((_n19 state_group_2_state_0_a_c_0 ))
(let ((_n20 true ))
(let ((_n21 (+   _n19   (ite  _n20  1 0) ) ))
(let ((_n22 (ite  _n10   _n21   _n19  ) ))
(let ((_n23 (=   _n21   _n22 ) ))
(let ((_n25 (<   (ite  _n1  1 0)   _n5 ) ))
(let ((_n26 (ite  _n25   _n5   (ite  _n1  1 0)  ) ))
(let ((_n27 (ite (=  (ite  _n25  1 0)  1)  _n26   (ite  _n1  1 0)  ) ))
(let ((_n28 (=   _n27   _n0 ) ))
(let ((_n30 (- 30) ))
(let ((_n31 (=   _n30   _n0 ) ))
(let ((_n32 (not  _n31 ) ))
(let ((_n33 (ite (=  _n0  (- 30))  (ite  _n1  1 0)   _n15  ) ))
(let ((_n34 (ite (=  (ite  _n32  1 0)  1)  _n33   (ite  _n1  1 0)  ) ))
(let ((_n35 (<   (ite  _n1  1 0)   _n34 ) ))
(let ((_n36 (ite  _n35   _n34   (ite  _n1  1 0)  ) ))
(let ((_n37 (ite (=  (ite  _n35  1 0)  1)  _n36   (ite  _n1  1 0)  ) ))
(let ((_n38 (=   _n37   _n9 ) ))
(let ((_n40 state_group_0_state_0_8_a_0 ))
(implies  (and (and (>= state_group_2_state_0_a_c_0 0) (< state_group_2_state_0_a_c_0 1024 ))  (and (and (>= state_group_1_state_0_9_b_0 0) (< state_group_1_state_0_9_b_0 1024 ))  (and (and (>= state_group_0_state_0_8_a_0 0) (< state_group_0_state_0_8_a_0 1024 ))  (and (and (>= pkt_1_7_9_0 0) (< pkt_1_7_9_0 1024 ))  (and (>= pkt_0_6_8_0 0) (< pkt_0_6_8_0 1024 )) ) ) ) )   (and  _n6  _n17  _n23  _n28  _n38 )  )))))))))))))))))))))))))))))))))))))))
(check-sat)
(get-model)
(exit)